data/solutions/recovery/degenerate/moderate/flexible/degenerate_moderate_instance36/9.sol
Elapsed time: 100.08
Upper bound: 1410180967.0
Planning weighted value: 37046802894.0
C[0]=1410180967.0
C[1]=1410078436.0
C[2]=1409871861.0
C[3]=1409871750.0
C[4]=0.0
y[0]=3
y[1]=3
y[2]=1
y[3]=1
y[4]=0
y[5]=2
y[6]=3
y[7]=0
y[8]=2
y[9]=3
y[10]=2
y[11]=0
y[12]=1
y[13]=0
y[14]=0
y[15]=1
y[16]=1
y[17]=3
y[18]=3
y[19]=3
y[20]=1
y[21]=2
y[22]=1
y[23]=3
y[24]=0
y[25]=2
y[26]=3
y[27]=3
y[28]=0
y[29]=1
y[30]=2
y[31]=1
y[32]=3
y[33]=2
y[34]=1
y[35]=1
y[36]=1
y[37]=2
y[38]=3
y[39]=0
y[40]=2
y[41]=0
y[42]=2
y[43]=3
y[44]=0
y[45]=1
