data/solutions/recovery/degenerate/moderate/flexible/degenerate_moderate_instance36/9.log

Log started (V12.6.3.0) Sat Apr 21 11:14:02 2018

New value for default parallel thread count: 1

Problem '/tmp/tmpL82rG7.pyomo.lp' read.
Read time = 0.00 sec. (0.11 ticks)

Problem name         : /tmp/tmpL82rG7.pyomo.lp
Objective sense      : Minimize
Variables            :     237  [Nneg: 1,  Binary: 230,  General Integer: 6]
Objective nonzeros   :       1
Linear constraints   :     104  [Less: 51,  Equal: 53]
  Nonzeros           :    7514
  RHS nonzeros       :      93

Variables            : Min LB: 0.000000         Max UB: 1.000000       
Objective nonzeros   : Min   : 1.000000         Max   : 1.000000       
Linear constraints   :
  Nonzeros           : Min   : 1.000000         Max   : 2.657465e+08   
  RHS nonzeros       : Min   : 1.000000         Max   : 5.000000       
Tried aggregator 1 time.
MIP Presolve eliminated 49 rows and 48 columns.
Reduced MIP has 55 rows, 189 columns, and 494 nonzeros.
Reduced MIP has 184 binaries, 5 generals, 0 SOSs, and 0 indicators.
Presolve time = 0.00 sec. (1.37 ticks)
Found incumbent of value 2.9686485e+09 after 0.00 sec. (1.61 ticks)
Probing time = 0.00 sec. (0.37 ticks)
Tried aggregator 1 time.
Reduced MIP has 55 rows, 189 columns, and 494 nonzeros.
Reduced MIP has 184 binaries, 5 generals, 0 SOSs, and 0 indicators.
Presolve time = 0.00 sec. (0.31 ticks)
Probing time = 0.00 sec. (0.37 ticks)
Clique table members: 46.
MIP emphasis: balance optimality and feasibility.
MIP search method: dynamic search.
Parallel mode: none, using 1 thread.
Root relaxation solution time = 0.00 sec. (0.76 ticks)

        Nodes                                         Cuts/
   Node  Left     Objective  IInf  Best Integer    Best Bound    ItCnt     Gap

*     0+    0                       2.96865e+09        0.0000           100.00%
      0     0   1.41000e+09    13   2.96865e+09   1.41000e+09      135   52.50%
*     0+    0                       1.48656e+09   1.41000e+09             5.15%
*     0+    0                       1.45628e+09   1.41000e+09             3.18%
      0     2   1.41000e+09    13   1.45628e+09   1.41000e+09      135    3.18%
Elapsed time = 0.01 sec. (6.47 ticks, tree = 0.01 MB, solutions = 3)
*    40+   39                       1.42902e+09   1.41000e+09             1.33%
*    40+   37                       1.42356e+09   1.41000e+09             0.95%
*   140+   90                       1.42014e+09   1.41000e+09             0.71%
*   585   337      integral     0   1.41406e+09   1.41000e+09     2077    0.29%
*   685+  384                       1.41342e+09   1.41000e+09             0.24%
*   976+  558                       1.41335e+09   1.41000e+09             0.24%
*  1079+  270                       1.41169e+09   1.41000e+09             0.12%
   1479   185   1.41000e+09     6   1.41169e+09   1.41000e+09     5217    0.12%
   1480   186   1.41000e+09     6   1.41169e+09   1.41000e+09     5218    0.12%
   1481   185   1.41011e+09    11   1.41169e+09   1.41000e+09     5228    0.12%
   1482   186   1.41000e+09     8   1.41169e+09   1.41000e+09     5231    0.12%
   1483   187   1.41000e+09     8   1.41169e+09   1.41000e+09     5233    0.12%
   1484   188   1.41000e+09     8   1.41169e+09   1.41000e+09     5234    0.12%
   1485   187        cutoff         1.41169e+09   1.41000e+09     5238    0.12%
   1486   186        cutoff         1.41169e+09   1.41000e+09     5244    0.12%
   1487   185    infeasible         1.41169e+09   1.41000e+09     5244    0.12%
*  1589   238      integral     0   1.41046e+09   1.41000e+09     5609    0.03%
   3251  1019   1.41000e+09     6   1.41046e+09   1.41000e+09    11092    0.03%
Elapsed time = 1.03 sec. (960.16 ticks, tree = 0.29 MB, solutions = 11)
  10843  3077    infeasible         1.41046e+09   1.41000e+09    41393    0.03%
  10844  3076    infeasible         1.41046e+09   1.41000e+09    41444    0.03%
  10845  3075        cutoff         1.41046e+09   1.41000e+09    41454    0.03%
  10846  3074        cutoff         1.41046e+09   1.41000e+09    41465    0.03%
  10847  3073    infeasible         1.41046e+09   1.41000e+09    41465    0.03%
  10848  3072        cutoff         1.41046e+09   1.41000e+09    41485    0.03%
  10849  3071    infeasible         1.41046e+09   1.41000e+09    41493    0.03%
  10850  3070    infeasible         1.41046e+09   1.41000e+09    41498    0.03%
  10851  3069        cutoff         1.41046e+09   1.41000e+09    41501    0.03%
  10852  3068        cutoff         1.41046e+09   1.41000e+09    41510    0.03%
Elapsed time = 2.19 sec. (1916.11 ticks, tree = 0.95 MB, solutions = 11)
* 16270  4054      integral     0   1.41031e+09   1.41000e+09    65090    0.02%
  20263  5110        cutoff         1.41031e+09   1.41000e+09    80578    0.02%
  20264  5109    infeasible         1.41031e+09   1.41000e+09    80582    0.02%
  20265  5108        cutoff         1.41031e+09   1.41000e+09    80594    0.02%
  20266  5107    infeasible         1.41031e+09   1.41000e+09    80605    0.02%
  20267  5106    infeasible         1.41031e+09   1.41000e+09    80616    0.02%
  20268  5105    infeasible         1.41031e+09   1.41000e+09    80621    0.02%
  20269  5104        cutoff         1.41031e+09   1.41000e+09    80627    0.02%
  20270  5103        cutoff         1.41031e+09   1.41000e+09    80630    0.02%
  20271  5102    infeasible         1.41031e+09   1.41000e+09    80630    0.02%
Elapsed time = 3.24 sec. (2870.86 ticks, tree = 1.66 MB, solutions = 12)
  29173  6623   1.41000e+09     8   1.41031e+09   1.41000e+09   118418    0.02%
  29174  6624   1.41000e+09     6   1.41031e+09   1.41000e+09   118420    0.02%
  29175  6625   1.41000e+09     8   1.41031e+09   1.41000e+09   118423    0.02%
  29176  6626   1.41000e+09     8   1.41031e+09   1.41000e+09   118424    0.02%
  29177  6627   1.41000e+09     8   1.41031e+09   1.41000e+09   118426    0.02%
  29178  6626        cutoff         1.41031e+09   1.41000e+09   118431    0.02%
  29179  6625    infeasible         1.41031e+09   1.41000e+09   118431    0.02%
  29180  6624        cutoff         1.41031e+09   1.41000e+09   118435    0.02%
  29181  6625   1.41000e+09     6   1.41031e+09   1.41000e+09   118436    0.02%
  29182  6626   1.41000e+09     6   1.41031e+09   1.41000e+09   118437    0.02%
Elapsed time = 4.27 sec. (3825.54 ticks, tree = 2.12 MB, solutions = 12)
  37887  8135   1.41020e+09    11   1.41031e+09   1.41000e+09   157008    0.02%
  37888  8134        cutoff         1.41031e+09   1.41000e+09   157017    0.02%
  37889  8135   1.41000e+09     8   1.41031e+09   1.41000e+09   157019    0.02%
  37890  8136   1.41000e+09     8   1.41031e+09   1.41000e+09   157020    0.02%
  37891  8137   1.41000e+09     6   1.41031e+09   1.41000e+09   157024    0.02%
  37892  8138   1.41000e+09     6   1.41031e+09   1.41000e+09   157026    0.02%
  37893  8139   1.41000e+09     6   1.41031e+09   1.41000e+09   157027    0.02%
  37894  8140   1.41000e+09     6   1.41031e+09   1.41000e+09   157028    0.02%
  37895  8141   1.41000e+09     6   1.41031e+09   1.41000e+09   157029    0.02%
  37896  8142   1.41000e+09     6   1.41031e+09   1.41000e+09   157030    0.02%
Elapsed time = 5.31 sec. (4779.97 ticks, tree = 2.55 MB, solutions = 12)
  47221  9948   1.41000e+09     8   1.41031e+09   1.41000e+09   196497    0.02%
  47222  9949   1.41000e+09     8   1.41031e+09   1.41000e+09   196498    0.02%
  47223  9950   1.41000e+09     8   1.41031e+09   1.41000e+09   196499    0.02%
  47224  9951   1.41000e+09     8   1.41031e+09   1.41000e+09   196500    0.02%
  47225  9952   1.41000e+09     8   1.41031e+09   1.41000e+09   196501    0.02%
  47226  9953   1.41000e+09     8   1.41031e+09   1.41000e+09   196502    0.02%
  47227  9952    infeasible         1.41031e+09   1.41000e+09   196514    0.02%
  47228  9951        cutoff         1.41031e+09   1.41000e+09   196523    0.02%
  47229  9950    infeasible         1.41031e+09   1.41000e+09   196526    0.02%
  47230  9949    infeasible         1.41031e+09   1.41000e+09   196527    0.02%
Elapsed time = 6.37 sec. (5735.32 ticks, tree = 3.27 MB, solutions = 12)
  54915 11035   1.41000e+09     8   1.41031e+09   1.41000e+09   226487    0.02%
  54916 11034    infeasible         1.41031e+09   1.41000e+09   226490    0.02%
  54917 11035   1.41000e+09     8   1.41031e+09   1.41000e+09   226491    0.02%
  54918 11036   1.41000e+09     8   1.41031e+09   1.41000e+09   226498    0.02%
  54919 11035        cutoff         1.41031e+09   1.41000e+09   226503    0.02%
  54920 11034        cutoff         1.41031e+09   1.41000e+09   226508    0.02%
  54921 11035   1.41000e+09     6   1.41031e+09   1.41000e+09   226512    0.02%
  54922 11036   1.41000e+09     6   1.41031e+09   1.41000e+09   226513    0.02%
  54923 11037   1.41000e+09     6   1.41031e+09   1.41000e+09   226515    0.02%
  54924 11038   1.41000e+09     6   1.41031e+09   1.41000e+09   226517    0.02%
Elapsed time = 7.46 sec. (6691.19 ticks, tree = 3.56 MB, solutions = 12)
  61933 11905   1.41000e+09     6   1.41031e+09   1.41000e+09   256946    0.02%
  61934 11906   1.41000e+09     6   1.41031e+09   1.41000e+09   256947    0.02%
  61935 11907   1.41000e+09     6   1.41031e+09   1.41000e+09   256948    0.02%
  61936 11906        cutoff         1.41031e+09   1.41000e+09   256957    0.02%
  61937 11907   1.41000e+09     6   1.41031e+09   1.41000e+09   256958    0.02%
  61938 11908   1.41000e+09     8   1.41031e+09   1.41000e+09   256960    0.02%
  61939 11909   1.41000e+09     6   1.41031e+09   1.41000e+09   256961    0.02%
  61940 11908    infeasible         1.41031e+09   1.41000e+09   256961    0.02%
  61941 11907        cutoff         1.41031e+09   1.41000e+09   256966    0.02%
  61942 11908   1.41000e+09     6   1.41031e+09   1.41000e+09   256967    0.02%
Elapsed time = 8.57 sec. (7645.49 ticks, tree = 3.82 MB, solutions = 12)
  69343 12822   1.41000e+09     8   1.41031e+09   1.41000e+09   286702    0.02%
  69344 12823   1.41000e+09     6   1.41031e+09   1.41000e+09   286704    0.02%
  69345 12824   1.41000e+09     6   1.41031e+09   1.41000e+09   286705    0.02%
  69346 12825   1.41000e+09     5   1.41031e+09   1.41000e+09   286708    0.02%
  69347 12824    infeasible         1.41031e+09   1.41000e+09   286713    0.02%
  69348 12823    infeasible         1.41031e+09   1.41000e+09   286713    0.02%
  69349 12824   1.41000e+09     6   1.41031e+09   1.41000e+09   286714    0.02%
  69350 12825   1.41000e+09     6   1.41031e+09   1.41000e+09   286715    0.02%
  69351 12826   1.41000e+09     6   1.41031e+09   1.41000e+09   286716    0.02%
  69352 12827   1.41000e+09     6   1.41031e+09   1.41000e+09   286717    0.02%
Elapsed time = 10.03 sec. (8600.59 ticks, tree = 4.08 MB, solutions = 12)
  76463 13637    infeasible         1.41031e+09   1.41000e+09   315802    0.02%
  76464 13636    infeasible         1.41031e+09   1.41000e+09   315805    0.02%
  76465 13637   1.41000e+09     8   1.41031e+09   1.41000e+09   315808    0.02%
  76466 13638   1.41000e+09     6   1.41031e+09   1.41000e+09   315809    0.02%
  76467 13639   1.41000e+09     6   1.41031e+09   1.41000e+09   315810    0.02%
  76468 13640   1.41000e+09     6   1.41031e+09   1.41000e+09   315812    0.02%
  76469 13641   1.41000e+09     6   1.41031e+09   1.41000e+09   315813    0.02%
  76470 13642   1.41000e+09     7   1.41031e+09   1.41000e+09   315815    0.02%
  76471 13643   1.41000e+09     6   1.41031e+09   1.41000e+09   315817    0.02%
  98102 16316        cutoff         1.41031e+09   1.41000e+09   415400    0.02%
Elapsed time = 14.28 sec. (12415.39 ticks, tree = 5.03 MB, solutions = 12)
 131129 22186   1.41000e+09     6   1.41031e+09   1.41000e+09   570270    0.02%
 131130 22187   1.41000e+09     6   1.41031e+09   1.41000e+09   570271    0.02%
 131131 22188   1.41000e+09     6   1.41031e+09   1.41000e+09   570273    0.02%
 131132 22189   1.41000e+09     6   1.41031e+09   1.41000e+09   570274    0.02%
 131133 22190   1.41000e+09     8   1.41031e+09   1.41000e+09   570277    0.02%
 131134 22191   1.41000e+09     8   1.41031e+09   1.41000e+09   570278    0.02%
 131135 22192   1.41000e+09     6   1.41031e+09   1.41000e+09   570280    0.02%
 131136 22191    infeasible         1.41031e+09   1.41000e+09   570280    0.02%
 131137 22190        cutoff         1.41031e+09   1.41000e+09   570294    0.02%
 131138 22191   1.41000e+09     6   1.41031e+09   1.41000e+09   570300    0.02%
Elapsed time = 18.50 sec. (16230.80 ticks, tree = 7.15 MB, solutions = 12)
 163187 25423    infeasible         1.41031e+09   1.41000e+09   728506    0.02%
 163188 25422    infeasible         1.41031e+09   1.41000e+09   728512    0.02%
 163189 25421    infeasible         1.41031e+09   1.41000e+09   728512    0.02%
 163190 25420        cutoff         1.41031e+09   1.41000e+09   728523    0.02%
 163191 25419        cutoff         1.41031e+09   1.41000e+09   728530    0.02%
 163192 25420   1.41000e+09     8   1.41031e+09   1.41000e+09   728532    0.02%
 163193 25419        cutoff         1.41031e+09   1.41000e+09   728557    0.02%
 163194 25420   1.41000e+09     8   1.41031e+09   1.41000e+09   728558    0.02%
 163195 25421   1.41000e+09     8   1.41031e+09   1.41000e+09   728559    0.02%
 163196 25422   1.41000e+09     8   1.41031e+09   1.41000e+09   728560    0.02%
Elapsed time = 22.67 sec. (20046.77 ticks, tree = 8.09 MB, solutions = 12)
*175722 26498      integral     0   1.41028e+09   1.41000e+09   781804    0.02%
 195754 29230        cutoff         1.41028e+09   1.41000e+09   861658    0.02%
 195755 29229        cutoff         1.41028e+09   1.41000e+09   861667    0.02%
 195756 29228        cutoff         1.41028e+09   1.41000e+09   861669    0.02%
 195757 29227    infeasible         1.41028e+09   1.41000e+09   861676    0.02%
 195758 29228   1.41000e+09     5   1.41028e+09   1.41000e+09   861677    0.02%
 195759 29229   1.41000e+09     5   1.41028e+09   1.41000e+09   861678    0.02%
 195760 29230   1.41000e+09     6   1.41028e+09   1.41000e+09   861679    0.02%
 195761 29231   1.41000e+09     6   1.41028e+09   1.41000e+09   861680    0.02%
 195762 29232   1.41000e+09     6   1.41028e+09   1.41000e+09   861681    0.02%
 195763 29233   1.41000e+09     6   1.41028e+09   1.41000e+09   861682    0.02%
Elapsed time = 27.01 sec. (23862.76 ticks, tree = 9.29 MB, solutions = 13)
*198904 28820      integral     0   1.41018e+09   1.41000e+09   873793    0.01%
 227389 29934        cutoff         1.41018e+09   1.41000e+09  1015049    0.01%
 227390 29933        cutoff         1.41018e+09   1.41000e+09  1015071    0.01%
 227391 29932    infeasible         1.41018e+09   1.41000e+09  1015076    0.01%
 227392 29931        cutoff         1.41018e+09   1.41000e+09  1015083    0.01%
 227393 29930    infeasible         1.41018e+09   1.41000e+09  1015083    0.01%
 227394 29931   1.41000e+09     6   1.41018e+09   1.41000e+09  1015085    0.01%
 227395 29932   1.41000e+09     6   1.41018e+09   1.41000e+09  1015086    0.01%
 227396 29933   1.41000e+09     6   1.41018e+09   1.41000e+09  1015087    0.01%
 227397 29934   1.41000e+09     6   1.41018e+09   1.41000e+09  1015088    0.01%
 227398 29935   1.41000e+09     8   1.41018e+09   1.41000e+09  1015090    0.01%
Elapsed time = 31.24 sec. (27678.59 ticks, tree = 9.44 MB, solutions = 14)
 259567 33234   1.41000e+09     5   1.41018e+09   1.41000e+09  1170603    0.01%
 259568 33233        cutoff         1.41018e+09   1.41000e+09  1170621    0.01%
 259569 33234   1.41000e+09     6   1.41018e+09   1.41000e+09  1170622    0.01%
 259570 33235   1.41000e+09     6   1.41018e+09   1.41000e+09  1170623    0.01%
 259571 33236   1.41000e+09     6   1.41018e+09   1.41000e+09  1170624    0.01%
 259572 33237   1.41000e+09     8   1.41018e+09   1.41000e+09  1170628    0.01%
 259573 33236        cutoff         1.41018e+09   1.41000e+09  1170632    0.01%
 259574 33235        cutoff         1.41018e+09   1.41000e+09  1170645    0.01%
 259575 33234        cutoff         1.41018e+09   1.41000e+09  1170666    0.01%
 259576 33233        cutoff         1.41018e+09   1.41000e+09  1170690    0.01%
Elapsed time = 35.43 sec. (31494.54 ticks, tree = 11.32 MB, solutions = 14)
 289725 41015   1.41000e+09     6   1.41018e+09   1.41000e+09  1296851    0.01%
 289726 41016   1.41000e+09     6   1.41018e+09   1.41000e+09  1296852    0.01%
 289727 41017   1.41000e+09     6   1.41018e+09   1.41000e+09  1296853    0.01%
 289728 41018   1.41000e+09     6   1.41018e+09   1.41000e+09  1296854    0.01%
 289729 41019   1.41000e+09     6   1.41018e+09   1.41000e+09  1296856    0.01%
 289730 41020   1.41000e+09     6   1.41018e+09   1.41000e+09  1296857    0.01%
 289731 41021   1.41000e+09     8   1.41018e+09   1.41000e+09  1296861    0.01%
 289732 41020        cutoff         1.41018e+09   1.41000e+09  1296873    0.01%
 289733 41021   1.41000e+09     6   1.41018e+09   1.41000e+09  1296874    0.01%
 289734 41022   1.41000e+09     8   1.41018e+09   1.41000e+09  1296876    0.01%
Elapsed time = 39.74 sec. (35311.04 ticks, tree = 13.47 MB, solutions = 14)
 315982 44424        cutoff         1.41018e+09   1.41000e+09  1416007    0.01%
 315983 44423        cutoff         1.41018e+09   1.41000e+09  1416021    0.01%
 315984 44422    infeasible         1.41018e+09   1.41000e+09  1416021    0.01%
 315985 44421    infeasible         1.41018e+09   1.41000e+09  1416021    0.01%
 315986 44420        cutoff         1.41018e+09   1.41000e+09  1416032    0.01%
 315987 44419    infeasible         1.41018e+09   1.41000e+09  1416032    0.01%
 315988 44418        cutoff         1.41018e+09   1.41000e+09  1416039    0.01%
 315989 44419   1.41000e+09     8   1.41018e+09   1.41000e+09  1416042    0.01%
 315990 44420   1.41000e+09     8   1.41018e+09   1.41000e+09  1416045    0.01%
 315991 44421   1.41000e+09     8   1.41018e+09   1.41000e+09  1416049    0.01%
Elapsed time = 44.00 sec. (39127.09 ticks, tree = 14.47 MB, solutions = 14)
 344488 48913   1.41000e+09     5   1.41018e+09   1.41000e+09  1535631    0.01%
 344489 48914   1.41000e+09     5   1.41018e+09   1.41000e+09  1535632    0.01%
 344490 48915   1.41000e+09     5   1.41018e+09   1.41000e+09  1535633    0.01%
 344491 48916   1.41000e+09     6   1.41018e+09   1.41000e+09  1535634    0.01%
 344492 48917   1.41000e+09     7   1.41018e+09   1.41000e+09  1535638    0.01%
 344493 48918   1.41000e+09     5   1.41018e+09   1.41000e+09  1535639    0.01%
 344494 48919   1.41000e+09     6   1.41018e+09   1.41000e+09  1535641    0.01%
 344495 48918        cutoff         1.41018e+09   1.41000e+09  1535649    0.01%
 344496 48919   1.41000e+09     6   1.41018e+09   1.41000e+09  1535650    0.01%
 344497 48918    infeasible         1.41018e+09   1.41000e+09  1535654    0.01%
Elapsed time = 48.34 sec. (42942.23 ticks, tree = 15.77 MB, solutions = 14)
 372278 52802   1.41000e+09     8   1.41018e+09   1.41000e+09  1656569    0.01%
 372279 52803   1.41000e+09     6   1.41018e+09   1.41000e+09  1656571    0.01%
 372280 52804   1.41000e+09     6   1.41018e+09   1.41000e+09  1656573    0.01%
 372281 52805   1.41000e+09     5   1.41018e+09   1.41000e+09  1656574    0.01%
 372282 52806   1.41000e+09     7   1.41018e+09   1.41000e+09  1656576    0.01%
 372283 52807   1.41000e+09     5   1.41018e+09   1.41000e+09  1656578    0.01%
 372284 52808   1.41000e+09     6   1.41018e+09   1.41000e+09  1656579    0.01%
 372285 52809   1.41000e+09     6   1.41018e+09   1.41000e+09  1656580    0.01%
 372286 52810   1.41000e+09     6   1.41018e+09   1.41000e+09  1656581    0.01%
 372287 52811   1.41000e+09     6   1.41018e+09   1.41000e+09  1656582    0.01%
Elapsed time = 52.66 sec. (46758.79 ticks, tree = 16.88 MB, solutions = 14)
 399237 54598        cutoff         1.41018e+09   1.41000e+09  1776617    0.01%
 399238 54597        cutoff         1.41018e+09   1.41000e+09  1776627    0.01%
 399239 54596        cutoff         1.41018e+09   1.41000e+09  1776636    0.01%
 399240 54595        cutoff         1.41018e+09   1.41000e+09  1776646    0.01%
 399241 54594        cutoff         1.41018e+09   1.41000e+09  1776654    0.01%
 399242 54593        cutoff         1.41018e+09   1.41000e+09  1776660    0.01%
 399243 54592        cutoff         1.41018e+09   1.41000e+09  1776664    0.01%
 399244 54591        cutoff         1.41018e+09   1.41000e+09  1776672    0.01%
 399245 54590        cutoff         1.41018e+09   1.41000e+09  1776687    0.01%
 399246 54589        cutoff         1.41018e+09   1.41000e+09  1776701    0.01%
Elapsed time = 56.97 sec. (50575.89 ticks, tree = 17.42 MB, solutions = 14)
 423127 56307        cutoff         1.41018e+09   1.41000e+09  1889020    0.01%
 423128 56306        cutoff         1.41018e+09   1.41000e+09  1889038    0.01%
 423129 56305        cutoff         1.41018e+09   1.41000e+09  1889045    0.01%
 423130 56304        cutoff         1.41018e+09   1.41000e+09  1889057    0.01%
 423131 56303        cutoff         1.41018e+09   1.41000e+09  1889084    0.01%
 423132 56302        cutoff         1.41018e+09   1.41000e+09  1889096    0.01%
 423133 56301        cutoff         1.41018e+09   1.41000e+09  1889128    0.01%
 423134 56300        cutoff         1.41018e+09   1.41000e+09  1889151    0.01%
 423135 56299        cutoff         1.41018e+09   1.41000e+09  1889166    0.01%
 423136 56298        cutoff         1.41018e+09   1.41000e+09  1889175    0.01%
Elapsed time = 61.31 sec. (54394.26 ticks, tree = 17.89 MB, solutions = 14)
 448496 58707   1.41000e+09     6   1.41018e+09   1.41000e+09  2001666    0.01%
 448497 58708   1.41000e+09     6   1.41018e+09   1.41000e+09  2001668    0.01%
 448498 58707    infeasible         1.41018e+09   1.41000e+09  2001668    0.01%
 448499 58708   1.41000e+09     8   1.41018e+09   1.41000e+09  2001670    0.01%
 448500 58709   1.41000e+09     5   1.41018e+09   1.41000e+09  2001672    0.01%
 448501 58710   1.41000e+09     5   1.41018e+09   1.41000e+09  2001673    0.01%
 448502 58711   1.41000e+09     6   1.41018e+09   1.41000e+09  2001679    0.01%
 448503 58710        cutoff         1.41018e+09   1.41000e+09  2001683    0.01%
 448504 58709        cutoff         1.41018e+09   1.41000e+09  2001688    0.01%
 448505 58708        cutoff         1.41018e+09   1.41000e+09  2001701    0.01%
Elapsed time = 65.69 sec. (58209.56 ticks, tree = 18.57 MB, solutions = 14)
 474105 63552        cutoff         1.41018e+09   1.41000e+09  2119531    0.01%
 474106 63553   1.41000e+09     8   1.41018e+09   1.41000e+09  2119534    0.01%
 474107 63552        cutoff         1.41018e+09   1.41000e+09  2119552    0.01%
 474108 63553   1.41000e+09     6   1.41018e+09   1.41000e+09  2119554    0.01%
 474109 63554   1.41000e+09     6   1.41018e+09   1.41000e+09  2119555    0.01%
 474110 63555   1.41000e+09     6   1.41018e+09   1.41000e+09  2119556    0.01%
 474111 63554        cutoff         1.41018e+09   1.41000e+09  2119562    0.01%
 474112 63553        cutoff         1.41018e+09   1.41000e+09  2119589    0.01%
 474113 63552        cutoff         1.41018e+09   1.41000e+09  2119620    0.01%
 474114 63551        cutoff         1.41018e+09   1.41000e+09  2119631    0.01%
Elapsed time = 70.07 sec. (62026.37 ticks, tree = 19.88 MB, solutions = 14)
 502831 69115   1.41000e+09     6   1.41018e+09   1.41000e+09  2243851    0.01%
 502832 69116   1.41000e+09     6   1.41018e+09   1.41000e+09  2243853    0.01%
 502833 69117   1.41000e+09     6   1.41018e+09   1.41000e+09  2243854    0.01%
 502834 69118   1.41000e+09     6   1.41018e+09   1.41000e+09  2243855    0.01%
 502835 69119   1.41000e+09     6   1.41018e+09   1.41000e+09  2243856    0.01%
 502836 69120   1.41000e+09     6   1.41018e+09   1.41000e+09  2243862    0.01%
 502837 69121   1.41000e+09     6   1.41018e+09   1.41000e+09  2243864    0.01%
 502838 69122   1.41000e+09     6   1.41018e+09   1.41000e+09  2243865    0.01%
 502839 69121        cutoff         1.41018e+09   1.41000e+09  2243872    0.01%
 502840 69122   1.41000e+09     8   1.41018e+09   1.41000e+09  2243875    0.01%
Elapsed time = 74.41 sec. (65843.12 ticks, tree = 23.35 MB, solutions = 14)
 529804 73250   1.41000e+09     8   1.41018e+09   1.41000e+09  2366500    0.01%
 529805 73251   1.41000e+09     6   1.41018e+09   1.41000e+09  2366503    0.01%
 529806 73252   1.41000e+09     6   1.41018e+09   1.41000e+09  2366504    0.01%
 529807 73253   1.41000e+09     6   1.41018e+09   1.41000e+09  2366505    0.01%
 529808 73254   1.41000e+09     6   1.41018e+09   1.41000e+09  2366506    0.01%
 529809 73255   1.41000e+09     6   1.41018e+09   1.41000e+09  2366507    0.01%
 529810 73254    infeasible         1.41018e+09   1.41000e+09  2366507    0.01%
 529811 73253        cutoff         1.41018e+09   1.41000e+09  2366521    0.01%
 529812 73254   1.41000e+09     8   1.41018e+09   1.41000e+09  2366523    0.01%
 529813 73255   1.41000e+09     6   1.41018e+09   1.41000e+09  2366526    0.01%
Elapsed time = 78.72 sec. (69659.83 ticks, tree = 24.47 MB, solutions = 14)
 555179 74515   1.41000e+09     6   1.41018e+09   1.41000e+09  2489824    0.01%
 555180 74514    infeasible         1.41018e+09   1.41000e+09  2489828    0.01%
 555181 74513        cutoff         1.41018e+09   1.41000e+09  2489833    0.01%
 555182 74512        cutoff         1.41018e+09   1.41000e+09  2489839    0.01%
 555183 74511        cutoff         1.41018e+09   1.41000e+09  2489844    0.01%
 555184 74512   1.41000e+09     6   1.41018e+09   1.41000e+09  2489846    0.01%
 555185 74513   1.41000e+09     6   1.41018e+09   1.41000e+09  2489847    0.01%
 555186 74514   1.41000e+09     5   1.41018e+09   1.41000e+09  2489849    0.01%
 555187 74515   1.41000e+09     5   1.41018e+09   1.41000e+09  2489850    0.01%
 555188 74514    infeasible         1.41018e+09   1.41000e+09  2489858    0.01%
Elapsed time = 83.01 sec. (73480.78 ticks, tree = 24.80 MB, solutions = 14)
 582464 73279    infeasible         1.41018e+09   1.41000e+09  2636440    0.01%
 582465 73278        cutoff         1.41018e+09   1.41000e+09  2636446    0.01%
 582466 73277        cutoff         1.41018e+09   1.41000e+09  2636452    0.01%
 582467 73276        cutoff         1.41018e+09   1.41000e+09  2636474    0.01%
 582468 73275        cutoff         1.41018e+09   1.41000e+09  2636493    0.01%
 582469 73274        cutoff         1.41018e+09   1.41000e+09  2636504    0.01%
 582470 73273    infeasible         1.41018e+09   1.41000e+09  2636533    0.01%
 582471 73272        cutoff         1.41018e+09   1.41000e+09  2636552    0.01%
 582472 73271    infeasible         1.41018e+09   1.41000e+09  2636561    0.01%
 582473 73270    infeasible         1.41018e+09   1.41000e+09  2636561    0.01%
Elapsed time = 87.25 sec. (77297.23 ticks, tree = 24.42 MB, solutions = 14)
 605411 74472        cutoff         1.41018e+09   1.41000e+09  2747026    0.01%
 605412 74473   1.41000e+09     5   1.41018e+09   1.41000e+09  2747029    0.01%
 605413 74473   1.41000e+09     5   1.41018e+09   1.41000e+09  2747032    0.01%
 605414 74472        cutoff         1.41018e+09   1.41000e+09  2747054    0.01%
 605415 74471    infeasible         1.41018e+09   1.41000e+09  2747081    0.01%
 605416 74470    infeasible         1.41018e+09   1.41000e+09  2747106    0.01%
 605417 74469        cutoff         1.41018e+09   1.41000e+09  2747113    0.01%
 605418 74468        cutoff         1.41018e+09   1.41000e+09  2747122    0.01%
 605419 74467        cutoff         1.41018e+09   1.41000e+09  2747124    0.01%
 605420 74466        cutoff         1.41018e+09   1.41000e+09  2747133    0.01%
Elapsed time = 91.27 sec. (81113.96 ticks, tree = 24.73 MB, solutions = 14)
 631917 77633   1.41000e+09     6   1.41018e+09   1.41000e+09  2862748    0.01%
 631918 77634   1.41000e+09     6   1.41018e+09   1.41000e+09  2862750    0.01%
 631919 77635   1.41000e+09     6   1.41018e+09   1.41000e+09  2862751    0.01%
 631920 77636   1.41000e+09     6   1.41018e+09   1.41000e+09  2862752    0.01%
 631921 77637   1.41000e+09     6   1.41018e+09   1.41000e+09  2862753    0.01%
 631922 77638   1.41000e+09     8   1.41018e+09   1.41000e+09  2862758    0.01%
 631923 77639   1.41000e+09     6   1.41018e+09   1.41000e+09  2862760    0.01%
 631924 77640   1.41000e+09     6   1.41018e+09   1.41000e+09  2862761    0.01%
 631925 77641   1.41000e+09     5   1.41018e+09   1.41000e+09  2862762    0.01%
 631926 77642   1.41000e+09     6   1.41018e+09   1.41000e+09  2862763    0.01%
Elapsed time = 95.25 sec. (84930.16 ticks, tree = 25.65 MB, solutions = 14)
 664700 83286   1.41000e+09     5   1.41018e+09   1.41000e+09  3007950    0.01%
 664701 83285        cutoff         1.41018e+09   1.41000e+09  3007961    0.01%
 664702 83284        cutoff         1.41018e+09   1.41000e+09  3007968    0.01%
 664703 83283        cutoff         1.41018e+09   1.41000e+09  3007983    0.01%
 664704 83284   1.41000e+09     8   1.41018e+09   1.41000e+09  3007986    0.01%
 664705 83285   1.41000e+09     6   1.41018e+09   1.41000e+09  3007988    0.01%
 664706 83286   1.41000e+09     8   1.41018e+09   1.41000e+09  3007991    0.01%
 664707 83287   1.41000e+09     6   1.41018e+09   1.41000e+09  3007993    0.01%
 664708 83288   1.41000e+09     6   1.41018e+09   1.41000e+09  3007994    0.01%
 664709 83289   1.41000e+09     6   1.41018e+09   1.41000e+09  3007996    0.01%
Elapsed time = 99.52 sec. (88746.66 ticks, tree = 27.24 MB, solutions = 14)

Mixed integer rounding cuts applied:  1

Root node processing (before b&c):
  Real time             =    0.01 sec. (6.48 ticks)
Sequential b&c:
  Real time             =   99.99 sec. (89187.52 ticks)
                          ------------
Total (root+branch&cut) =  100.00 sec. (89194.00 ticks)

Solution pool: 14 solutions saved.

MIP - Time limit exceeded, integer feasible:  Objective =  1.4101809670e+09
Current MIP best bound =  1.4100007540e+09 (gap = 180213, 0.01%)
Solution time =  100.00 sec.  Iterations = 3024883  Nodes = 668618 (83834)
Deterministic time = 89194.00 ticks  (891.94 ticks/sec)


Incumbent solution written to file '/tmp/tmpGsqEJv.cplex.sol'.
